networks/zoo_50_120/zoo_50_120.sol
<?xml version = "1.0" encoding="UTF-8" standalone="yes"?>
<CPLEXSolution version="1.2">
 <header
   problemName="networks/zoo_50_120/zoo_50_120.lp"
   solutionName="incumbent"
   solutionIndex="-1"
   objectiveValue="21"
   solutionTypeValue="3"
   solutionTypeString="primal"
   solutionStatusValue="101"
   solutionStatusString="integer optimal solution"
   solutionMethodString="mip"
   primalFeasible="1"
   dualFeasible="1"
   MIPNodes="0"
   MIPIterations="751"
   writeLevel="3"/>
 <quality
   epInt="1.0000000000000001e-05"
   epRHS="9.9999999999999995e-07"
   maxIntInfeas="0"
   maxPrimalInfeas="0"
   maxX="4"
   maxSlack="10"/>
 <variables>
  <variable name="Y(2,3)" index="43" value="1"/>
  <variable name="Y(18,4)" index="700" value="1"/>
  <variable name="Y(22,15)" index="873" value="1"/>
  <variable name="Y(32,16)" index="1284" value="1"/>
  <variable name="Y(38,6)" index="1522" value="1"/>
  <variable name="Y(46,7)" index="1851" value="1"/>
  <variable name="Y(48,23)" index="1945" value="1"/>
  <variable name="Y(54,5)" index="2177" value="1"/>
  <variable name="Y(57,9)" index="2304" value="1"/>
  <variable name="Y(58,12)" index="2347" value="1"/>
  <variable name="Y(63,18)" index="2557" value="1"/>
  <variable name="Y(64,21)" index="2600" value="1"/>
  <variable name="Y(68,2)" index="2748" value="1"/>
  <variable name="Y(76,8)" index="3082" value="1"/>
  <variable name="Y(81,24)" index="3299" value="1"/>
  <variable name="Y(85,2)" index="3445" value="1"/>
  <variable name="Y(101,25)" index="4120" value="1"/>
  <variable name="Y(110,11)" index="4478" value="1"/>
  <variable name="Y(112,13)" index="4562" value="1"/>
  <variable name="Y(115,17)" index="4688" value="1"/>
  <variable name="Y(117,20)" index="4772" value="1"/>
  <variable name="X(1,4,2)" index="4921" value="1"/>
  <variable name="X(2,3,115)" index="5154" value="1"/>
  <variable name="X(2,4,85)" index="5244" value="1"/>
  <variable name="X(2,7,32)" index="5311" value="1"/>
  <variable name="X(2,11,110)" index="5509" value="1"/>
  <variable name="X(2,12,58)" index="5577" value="1"/>
  <variable name="X(2,15,22)" index="5661" value="1"/>
  <variable name="X(2,27,68)" index="5827" value="1"/>
  <variable name="X(3,2,22)" index="5901" value="1"/>
  <variable name="X(3,4,18)" index="6017" value="1"/>
  <variable name="X(3,17,115)" index="6234" value="1"/>
  <variable name="X(3,28,2)" index="6241" value="1"/>
  <variable name="X(4,2,32)" index="6391" value="1"/>
  <variable name="X(4,3,2)" index="6481" value="1"/>
  <variable name="X(4,29,18)" index="6617" value="1"/>
  <variable name="X(5,25,38)" index="6757" value="1"/>
  <variable name="X(5,30,54)" index="6893" value="1"/>
  <variable name="X(6,7,46)" index="7005" value="1"/>
  <variable name="X(6,9,57)" index="7136" value="1"/>
  <variable name="X(6,21,64)" index="7263" value="1"/>
  <variable name="X(6,25,81)" index="7400" value="1"/>
  <variable name="X(6,31,38)" index="7477" value="1"/>
  <variable name="X(7,2,85)" index="7644" value="1"/>
  <variable name="X(7,6,64)" index="7743" value="1"/>
  <variable name="X(7,8,76)" index="7875" value="1"/>
  <variable name="X(7,25,32)" index="7951" value="1"/>
  <variable name="X(7,32,46)" index="8085" value="1"/>
  <variable name="X(8,7,85)" index="8244" value="1"/>
  <variable name="X(8,23,48)" index="8327" value="1"/>
  <variable name="X(8,33,76)" index="8475" value="1"/>
  <variable name="X(9,34,57)" index="8576" value="1"/>
  <variable name="X(11,36,110)" index="8749" value="1"/>
  <variable name="X(12,37,58)" index="8817" value="1"/>
  <variable name="X(13,38,112)" index="8991" value="1"/>
  <variable name="X(15,2,68)" index="9067" value="1"/>
  <variable name="X(15,40,22)" index="9141" value="1"/>
  <variable name="X(16,41,32)" index="9271" value="1"/>
  <variable name="X(17,13,112)" index="9471" value="1"/>
  <variable name="X(17,42,115)" index="9594" value="1"/>
  <variable name="X(18,25,76)" index="9675" value="1"/>
  <variable name="X(18,43,63)" index="9782" value="1"/>
  <variable name="X(20,45,117)" index="9956" value="1"/>
  <variable name="X(21,6,81)" index="10040" value="1"/>
  <variable name="X(21,46,64)" index="10143" value="1"/>
  <variable name="X(23,8,85)" index="10284" value="1"/>
  <variable name="X(23,48,48)" index="10367" value="1"/>
  <variable name="X(24,25,101)" index="10540" value="1"/>
  <variable name="X(24,49,81)" index="10640" value="1"/>
  <variable name="X(25,5,54)" index="10733" value="1"/>
  <variable name="X(25,6,38)" index="10837" value="1"/>
  <variable name="X(25,7,76)" index="10995" value="1"/>
  <variable name="X(25,16,32)" index="11071" value="1"/>
  <variable name="X(25,18,63)" index="11222" value="1"/>
  <variable name="X(25,20,117)" index="11396" value="1"/>
  <variable name="X(25,24,81)" index="11480" value="1"/>
  <variable name="X(25,50,101)" index="11620" value="1"/>
  <variable name="C(2,4)" index="11644" value="1"/>
  <variable name="C(2,3)" index="11645" value="2"/>
  <variable name="C(18,4)" index="11703" value="1"/>
  <variable name="C(22,2)" index="11716" value="1"/>
  <variable name="C(22,15)" index="11717" value="1.9999999999999998"/>
  <variable name="C(32,2)" index="11751" value="1"/>
  <variable name="C(32,7)" index="11752" value="2"/>
  <variable name="C(32,25)" index="11753" value="3"/>
  <variable name="C(32,16)" index="11754" value="4"/>
  <variable name="C(38,25)" index="11779" value="1"/>
  <variable name="C(38,6)" index="11780" value="2"/>
  <variable name="C(46,7)" index="11806" value="1"/>
  <variable name="C(48,23)" index="11813" value="1"/>
  <variable name="C(54,5)" index="11833" value="1"/>
  <variable name="C(57,9)" index="11842" value="1"/>
  <variable name="C(58,12)" index="11846" value="1"/>
  <variable name="C(63,18)" index="11869" value="1"/>
  <variable name="C(64,6)" index="11872" value="1"/>
  <variable name="C(64,21)" index="11873" value="2"/>
  <variable name="C(68,2)" index="11884" value="1"/>
  <variable name="C(76,25)" index="11914" value="1"/>
  <variable name="C(76,7)" index="11915" value="2"/>
  <variable name="C(76,8)" index="11916" value="3"/>
  <variable name="C(81,6)" index="11933" value="1"/>
  <variable name="C(81,25)" index="11934" value="2"/>
  <variable name="C(81,24)" index="11935" value="3"/>
  <variable name="C(85,8)" index="11949" value="1"/>
  <variable name="C(85,7)" index="11950" value="2"/>
  <variable name="C(85,2)" index="11951" value="3"/>
  <variable name="C(101,25)" index="12016" value="1"/>
  <variable name="C(110,11)" index="12043" value="1"/>
  <variable name="C(112,13)" index="12053" value="1"/>
  <variable name="C(115,3)" index="12063" value="1"/>
  <variable name="C(115,17)" index="12064" value="2"/>
  <variable name="C(117,20)" index="12068" value="1"/>
 </variables>
</CPLEXSolution>
